
******************************************************************************
This program contains Ipopt, a library for large-scale nonlinear optimization.
 Ipopt is released as open source code under the Eclipse Public License (EPL).
         For more information visit http://projects.coin-or.org/Ipopt
******************************************************************************

This is Ipopt version 3.12.6, running with linear solver ma57.

Number of nonzeros in equality constraint Jacobian...:        0
Number of nonzeros in inequality constraint Jacobian.:        7
Number of nonzeros in Lagrangian Hessian.............:       28

Total number of variables............................:        7
                     variables with only lower bounds:        0
                variables with lower and upper bounds:        7
                     variables with only upper bounds:        0
Total number of equality constraints.................:        0
Total number of inequality constraints...............:        4
        inequality constraints with only lower bounds:        1
   inequality constraints with lower and upper bounds:        0
        inequality constraints with only upper bounds:        3

iter    objective    inf_pr   inf_du lg(mu)  ||d||  lg(rg) alpha_du alpha_pr  ls
   0 -8.0984526e+02 0.00e+00 5.63e+01  -1.0 0.00e+00    -  0.00e+00 0.00e+00   0
   1 -8.3334245e+02 0.00e+00 2.64e+03  -1.0 2.65e-03   6.0 1.00e+00 1.00e+00f  1
   2 -8.3209927e+02 0.00e+00 9.91e+01  -1.0 2.97e-04   5.5 1.00e+00 1.00e+00f  1
   3 -8.3132307e+02 0.00e+00 1.59e+01  -1.0 1.43e-04   5.0 1.00e+00 1.00e+00f  1
   4 -8.3047345e+02 0.00e+00 6.35e+00  -1.0 1.71e-04   4.6 1.00e+00 1.00e+00f  1
   5 -8.3009015e+02 0.00e+00 1.30e+00  -1.0 1.06e-04   4.1 1.00e+00 1.00e+00f  1
   6 -8.3004782e+02 0.00e+00 1.31e+00  -1.0 3.17e-04   3.6 1.00e+00 1.00e+00f  1
   7 -8.3017126e+02 0.00e+00 1.31e+00  -1.0 9.56e-04   3.1 1.00e+00 1.00e+00f  1
   8 -8.3056746e+02 0.00e+00 1.33e+00  -1.0 2.90e-03   2.7 1.00e+00 1.00e+00f  1
   9 -8.3184019e+02 0.00e+00 1.39e+00  -1.0 9.07e-03   2.2 1.00e+00 1.00e+00f  1
iter    objective    inf_pr   inf_du lg(mu)  ||d||  lg(rg) alpha_du alpha_pr  ls
  10 -8.3674461e+02 0.00e+00 1.72e+00  -1.0 3.16e-02   1.7 1.00e+00 1.00e+00f  1
  11 -8.7282908e+02 0.00e+00 1.44e+01  -1.0 3.04e-01   1.2 6.91e-01 3.82e-01f  1
  12 -9.0086766e+02 0.00e+00 1.48e+01  -1.0 4.52e-01   0.8 1.33e-01 4.45e-01f  1
  13 -8.9412487e+02 0.00e+00 2.29e+01  -1.0 2.77e-02   3.0 1.00e+00 5.00e-01f  2
  14 -9.0210124e+02 0.00e+00 5.48e+00  -1.0 1.35e-02   2.5 1.00e+00 1.00e+00f  1
  15 -9.1988468e+02 0.00e+00 4.41e+00  -1.0 1.15e+00    -  1.83e-01 1.81e-01f  1
  16 -9.3083691e+02 0.00e+00 2.93e+00  -1.0 1.15e+00    -  2.97e-01 2.36e-01f  1
  17 -9.2438332e+02 0.00e+00 4.24e-01  -1.0 1.24e-01    -  1.00e+00 1.00e+00f  1
  18 -9.4093865e+02 0.00e+00 3.34e+00  -1.7 2.29e-01    -  8.08e-01 5.63e-01f  1
  19 -9.4916636e+02 0.00e+00 1.43e+00  -1.7 1.99e-01    -  1.00e+00 6.88e-01f  1
iter    objective    inf_pr   inf_du lg(mu)  ||d||  lg(rg) alpha_du alpha_pr  ls
  20 -9.4972792e+02 0.00e+00 8.19e-01  -1.7 3.18e-02    -  6.15e-01 1.00e+00f  1
  21 -9.4976471e+02 0.00e+00 1.23e-01  -1.7 1.14e-03   2.0 1.00e+00 1.00e+00f  1
  22 -9.5224954e+02 0.00e+00 1.57e+00  -2.5 1.65e-01    -  8.84e-01 1.94e-01f  1
  23 -9.5572646e+02 0.00e+00 1.61e-02  -2.5 9.13e-03    -  1.00e+00 1.00e+00f  1
  24 -9.5649584e+02 0.00e+00 2.76e-03  -3.8 1.71e-03    -  1.00e+00 1.00e+00f  1
  25 -9.5649227e+02 0.00e+00 3.63e-06  -3.8 3.39e-05    -  1.00e+00 1.00e+00f  1
  26 -9.5653732e+02 0.00e+00 2.02e-05  -5.7 9.53e-05    -  1.00e+00 1.00e+00f  1
  27 -9.5653730e+02 0.00e+00 1.95e-10  -5.7 2.47e-07    -  1.00e+00 1.00e+00f  1
  28 -9.5653786e+02 0.00e+00 3.09e-09  -8.6 1.18e-06    -  1.00e+00 1.00e+00f  1

Number of Iterations....: 28

                                   (scaled)                 (unscaled)
Objective...............:  -2.2098939738265287e+01   -9.5653785690048880e+02
Dual infeasibility......:   3.0893360751770162e-09    1.3371985007399981e-07
Constraint violation....:   0.0000000000000000e+00    0.0000000000000000e+00
Complementarity.........:   2.5123681500672724e-09    1.0874617852589511e-07
Overall NLP error.......:   3.0893360751770162e-09    1.3371985007399981e-07


Number of objective function evaluations             = 30
Number of objective gradient evaluations             = 29
Number of equality constraint evaluations            = 0
Number of inequality constraint evaluations          = 30
Number of equality constraint Jacobian evaluations   = 0
Number of inequality constraint Jacobian evaluations = 29
Number of Lagrangian Hessian evaluations             = 28
Total CPU secs in IPOPT (w/o function evaluations)   =      0.007
Total CPU secs in NLP function evaluations           =      0.000

EXIT: Optimal Solution Found.

************************ CUTEst statistics ************************


 Package used            :  IPOPT
 Problem                 :  QC        
 # variables             =               9
 # constraints           =               4
 # objective functions   =        0.6000000E+02
 # objective gradients   =        0.3000000E+02
 # objective Hessians    =        0.2900000E+02
 # Hessian-vector prdct  =        0.0000000E+00
 # constraints functions =        0.6100000E+02
 # constraints gradients =        0.3100000E+02
 # constraints Hessians  =        0.2900000E+02
 Exit code               =               0
 Final f                 =  -0.9565379E+03
 Set up time             =            0.00 seconds
 Solve time              =            0.04 seconds


******************************************************************

System Time =       0.0099999998 s.
